50
23977

291 922
964 518
750 248
450 288
713 95
742 336
670 195
266 948
320 433
950 635
180 989
154 360
14 477
778 342
253 915
927 850
611 843
19 98
543 307
152 444
563 380
850 282
469 648
482 493
316 967
538 392
265 308
442 400
354 143
602 789
932 458
607 616
796 14
820 840
797 592
839 940
635 246
643 75
496 602
572 619
214 89
522 764
63 295
915 309
62 313
704 511
852 853
30 19
605 373
643 153
